1
1000
83
128 1
130 1
132 1
134 1
135 1
136 1
172 1
209 1
13 2
14 1
143 1
144 1
17 1
188 1
21 1
22 2
23 2
24 1
25 1
154 1
155 1
29 1
30 1
159 1
160 1
33 1
36 1
198 1
42 1
199 1
44 1
46 1
48 1
200 1
178 2
179 1
181 1
54 1
57 4
58 1
60 1
61 1
62 2
191 1
64 1
66 1
68 1
182 1
70 1
71 2
72 1
201 2
74 1
76 1
77 1
78 1
190 1
80 1
81 2
82 1
142 1
185 1
89 1
90 2
207 1
186 1
95 1
96 1
194 1
101 1
103 2
105 1
106 2
174 1
112 1
113 1
206 1
116 1
117 1
118 1
122 1
170 3
126 2
